/* Objective function */
min: - 0.0054fpdi - 0.0054fpdo + 0.05apdi + 0.05apdo + 0.0002pi + 0.0002po - 0.5fsi - 0.5fso;

apdi = 0.0 hi + 0.0 li + 12.81792 ri + -0.01701 ci + -1.93427 si + -0.0 ti + 0.1137 fTempIi + 0.01803 ami + -155.12049;
asi = 0.0 hi + 0.0 li + 0.0 ri + -0.0 ci + 0.0 si + 0.0 ti + -0.0 fTempIi + 0.00017 ami + -0.00286;
aTempOi = 0.0 hi + 0.0 li + 0.29676 ri + -0.1135 ci + -0.05193 si + 0.0 ti + 0.76905 fTempIi + -0.00053 ami + 6.94982;
fpdi = 0.0 hi + -0.0 li + 9.95356 ri + -28.13608 ci + -0.02189 si + 0.0 ti + -0.54608 fTempIi + 0.0002 ami + 282.92905;
fsi = 0.0 hi + -0.0 li + -5e-05 ri + -0.11009 ci + 1e-05 si + 0.0 ti + 0.00017 fTempIi + -0.0 ami + 2.05325;
fTempOi = 0.0 hi + 0.0 li + -0.29271 ri + 0.11307 ci + 0.051 si + -0.0 ti + 0.2541 fTempIi + -0.00044 ami + 9.47327;
pi = 0.0 hi + 0.0 li + 136.27222 ri + 3.51048 ci + -10.60905 si + 0.0 ti + -0.0 fTempIi + 0.0 ami + 406.42587;

apdo = 0.0 ho + -0.0 lo + 10.91553 ro + 0.01633 co + -1.5107 so + 0.0 to + 0.0985 fTempIo + 0.01612 amo + -124.03546;
aso = 0.0 ho + 0.0 lo + 0.0 ro + -0.0 co + -0.0 so + 0.0 to + -0.0 fTempIo + 0.00017 amo + -0.00286;
aTempOo = 0.0 ho + 0.0 lo + -0.3304 ro + 0.12694 co + 0.04304 so + 0.0 to + 0.72275 fTempIo + 0.00053 amo + 0.42289;
fpdo = 0.0 ho + -0.0 lo + 9.72399 ro + -28.06214 co + 0.01813 so + 0.0 to + -0.56216 fTempIo + -0.00023 amo + 281.84022;
fso = 0.0 ho + -0.0 lo + 5e-05 ro + -0.11004 co + -1e-05 so + 0.0 to + 0.00019 fTempIo + 0.0 amo + 2.05207;
fTempOo = 0.0 ho + 0.0 lo + 0.32345 ro + -0.12416 co + -0.04206 so + 0.0 to + 0.28945 fTempIo + 0.00049 amo + 11.96435;
po = 0.0 ho + -0.0 lo + 183.87083 ro + 3.86571 co + -16.89133 so + -0.0 to + -0.0 fTempIo + 0.0 amo + 716.22738;

/* Variable bounds */
aTempOi > 18.6;
1 =r6i + r8i + r10i + r12i + r14i;
ri =6r6i + 8r8i + 10r10i + 12r12i + 14r14i;
1 =s25i + s30i + s40i;
si =25s25i + 30s30i + 40s40i;
ti = 2;
apdi > 100;
apdi < 300;
asi > 0;
asi < 3;
aTempOi > 5;
aTempOi < 25;
fpdi > 100;
fpdi < 300;
fsi > 0;
fsi < 1.25;
fTempOi > 5;
fTempOi < 25;
pi > 0;
ri > 6;
ri < 14;
ci > 7;
ci < 60;
si > 25;
si < 60;
ti > 1;
ti < 3;
fTempIi > 5;
fTempIi < 25;

/* aTempOo < 11.4; */
1 =r6o + r8o + r10o + r12o + r14o;
ro =6r6o + 8r8o + 10r10o + 12r12o + 14r14o;
1 =s30o + s40o + s50o + s60o;
so =30s30o + 40s40o + 50s50o + 60s60o;
to = 3;
apdo > 100;
apdo < 300;
aso > 0;
aso < 3;
aTempOo > 5;
aTempOo < 25;
fpdo > 100;
fpdo < 300;
fso > 0;
fso < 1.25;
fTempOo > 5;
fTempOo < 25;
po > 0;
ro > 6;
ro < 14;
co > 7;
co < 60;
so > 25;
so < 60;
to > 1;
to < 3;
fTempIo > 5;
fTempIo < 25;
int hi,li,si,ti,ci,ri,ami;
int ho,lo,so,to,co,ro,amo;
bin s25i,s30i,s40i,s50i,s60i,r6i,r8i,r10i,r12i,r14i;
bin s25o,s30o,s40o,s50o,s60o,r6o,r8o,r10o,r12o,r14o;
